[VALIDATOR STDOUT]
Checking plan: /home/jfan5/Safety-gen/runs/benchmark/optic/ferry_20260205_113042/ferry/optic_results/ferry-l23-c12-s23001.plan
Plan executed successfully - checking goal
Plan valid
Final value: 49 

Successful plans:
Value: 49
 /home/jfan5/Safety-gen/runs/benchmark/optic/ferry_20260205_113042/ferry/optic_results/ferry-l23-c12-s23001.plan 49
